This is Ipopt version 3.10.1, running with linear solver mumps.

Number of nonzeros in equality constraint Jacobian...:      141
Number of nonzeros in inequality constraint Jacobian.:        0
Number of nonzeros in Lagrangian Hessian.............:     2019

Total number of variables............................:       72
                     variables with only lower bounds:        0
                variables with lower and upper bounds:       72
                     variables with only upper bounds:        0
Total number of equality constraints.................:       47
Total number of inequality constraints...............:        0
        inequality constraints with only lower bounds:        0
   inequality constraints with lower and upper bounds:        0
        inequality constraints with only upper bounds:        0

iter    objective    inf_pr   inf_du lg(mu)  ||d||  lg(rg) alpha_du alpha_pr  ls
   0 -8.0771048e-04 1.00e-02 2.64e-03  -1.0 0.00e+00    -  0.00e+00 0.00e+00   0
   1 -9.0975461e-04 2.22e-16 2.34e-03  -1.7 2.26e-02    -  9.82e-01 1.00e+00h  1
   2 -9.5108337e-04 2.22e-16 5.93e-03  -2.5 3.39e-02    -  9.58e-01 1.00e+00f  1
   3 -1.0743094e-03 1.04e-11 9.62e-04  -3.8 4.16e-02    -  9.43e-01 1.00e+00f  1
   4 -9.6476684e-04 6.13e-12 2.61e-03  -5.7 6.38e-01    -  3.13e-01 4.09e-01h  1
   5 -9.6028644e-04 6.11e-12 2.89e-03  -5.7 2.12e-01  -4.0 2.39e-01 2.61e-03f  9
   6 -1.5279539e-03 4.74e-12 9.22e-03  -5.7 3.07e+00  -1.8 1.45e-01 2.25e-01f  1
   7 -2.2256461e-03 4.71e-12 8.64e-03  -5.7 7.26e-01  -2.2 2.36e-01 7.75e-02f  1
   8 -3.4442006e-03 2.80e-12 8.95e-03  -5.7 1.53e-01  -1.8 7.46e-01 4.05e-01f  1
   9 -5.1880715e-03 3.47e-12 2.95e-03  -5.7 7.56e-02  -1.4 9.55e-01 1.00e+00f  1
iter    objective    inf_pr   inf_du lg(mu)  ||d||  lg(rg) alpha_du alpha_pr  ls
  10 -2.3415490e-03 1.03e-12 1.75e-02  -5.7 4.93e-01  -1.9 1.22e-01 7.04e-01h  1
  11 -2.4928679e-03 1.53e-12 1.57e-02  -5.7 3.07e-01  -1.4 1.74e-01 1.34e-01f  1
  12 -2.5636736e-03 1.53e-12 1.57e-02  -5.7 2.09e+00  -1.9 1.24e-01 1.77e-03f  1
  13 -4.0091145e-03 4.44e-16 2.51e-03  -5.7 5.78e-02  -1.5 8.44e-01 1.00e+00F  1
  14 -3.8150512e-03 4.44e-16 2.36e-03  -5.7 2.49e-01  -2.0 1.36e-01 3.12e-02h  6
  15 -5.1023758e-03 4.44e-16 4.61e-03  -5.7 1.95e-01  -1.5 1.00e+00 1.73e-01f  1
  16 -7.2109018e-03 2.22e-16 4.17e-03  -5.7 4.71e-02  -1.1 1.00e+00 1.00e+00f  1
  17 -8.5076725e-03 2.22e-16 4.68e-03  -5.7 2.25e-02  -0.7 1.00e+00 8.36e-01f  1
  18 -9.2207833e-03 4.87e-13 1.75e-02  -5.7 1.78e-01  -1.2 1.00e+00 5.52e-02f  1
  19 -1.1616345e-02 2.05e-12 7.03e-03  -5.7 3.65e-02  -0.7 1.00e+00 1.00e+00f  1
iter    objective    inf_pr   inf_du lg(mu)  ||d||  lg(rg) alpha_du alpha_pr  ls
  20 -1.3849159e-02 2.99e-12 5.62e-02  -5.7 4.59e-01  -1.2 9.70e-01 6.06e-02f  1
  21 -1.7654410e-02 4.46e-12 2.70e-02  -5.7 6.99e-02  -0.8 4.77e-01 6.45e-01f  1
  22 -2.1443068e-02 4.40e-12 5.98e-02  -5.7 2.71e+00  -1.3 9.21e-02 1.37e-02f  1
  23 -2.9668654e-02 2.36e-12 1.85e-02  -5.7 1.41e-01  -0.8 1.00e+00 4.63e-01f  1
  24 -3.4780108e-02 8.10e-12 1.45e-02  -5.7 3.64e-02  -0.4 1.00e+00 1.00e+00f  1
  25 -4.1816793e-02 7.19e-12 8.21e-02  -5.7 3.40e-01  -0.9 8.95e-01 1.13e-01f  1
  26 -4.3106605e-02 6.43e-12 4.82e-02  -5.7 6.53e-02  -0.5 1.00e+00 1.05e-01f  1
  27 -6.2559681e-02 1.20e-11 4.40e-02  -5.7 3.54e-01  -1.0 5.78e-01 2.96e-01f  1
  28 -7.0015711e-02 9.15e-12 4.87e-02  -5.7 1.24e-01  -0.5 1.00e+00 2.38e-01f  1
  29 -3.6530772e-02 7.04e-12 1.03e-01  -5.7 1.35e+00  -1.0 2.48e-03 2.31e-01h  1
iter    objective    inf_pr   inf_du lg(mu)  ||d||  lg(rg) alpha_du alpha_pr  ls
  30 -3.6777727e-02 7.92e-12 6.34e-02  -5.7 7.15e-02  -0.6 9.42e-01 6.44e-02f  1
  31 -3.6838851e-02 7.98e-12 6.33e-02  -5.7 2.43e-01  -1.1 5.38e-02 2.25e-03f  1
  32 -4.3795433e-02 3.08e-13 1.59e-02  -5.7 5.48e-02  -0.6 1.00e+00 9.61e-01f  1
  33 -4.9883060e-02 3.88e-12 1.91e-02  -5.7 4.41e-01  -1.1 1.18e-01 1.13e-01f  1
  34 -5.6407974e-02 9.32e-12 1.16e-02  -5.7 5.73e-02  -0.7 1.00e+00 9.22e-01f  1
  35 -6.3388774e-02 8.46e-12 1.38e-02  -5.7 5.20e-01  -1.2 1.47e-01 9.28e-02f  1
  36 -6.5120771e-02 7.09e-12 7.63e-02  -5.7 7.20e-02  -0.7 1.00e+00 1.61e-01f  1
  37 -8.5143325e-02 6.97e-12 5.92e-02  -5.7 9.50e+00  -1.2 8.02e-03 1.79e-02f  1
  38 -8.7479297e-02 6.97e-12 8.89e-02  -5.7 3.79e-01  -0.8 6.55e-01 3.23e-02f  1
  39 -9.2820141e-02 4.51e-12 4.73e-02  -5.7 6.63e-02  -0.4 6.34e-01 3.53e-01f  1
iter    objective    inf_pr   inf_du lg(mu)  ||d||  lg(rg) alpha_du alpha_pr  ls
  40 -1.2881713e-01 1.65e-11 5.73e-02  -5.7 6.74e-01  -0.8 3.78e-01 2.15e-01f  1
  41 -1.2893556e-01 1.64e-11 1.45e-01  -5.7 9.34e-02  -0.4 8.17e-01 4.01e-03f  1
  42 -1.3980812e-01 1.54e-11 4.06e-01  -5.7 4.91e-01  -0.9 9.51e-01 6.59e-02f  1
  43 -1.5192302e-01 2.70e-11 5.27e-02  -5.7 7.27e-02  -0.5 1.00e+00 6.67e-01f  1
  44 -1.6408845e-01 2.91e-11 1.14e-01  -5.7 1.44e-01  -0.9 4.03e-03 3.65e-01f  1
  45 -1.6419987e-01 2.67e-11 1.11e-01  -5.7 6.04e-02  -0.5 1.14e-02 4.28e-02f  1
  46 -1.6422622e-01 2.65e-11 1.35e-01  -5.7 1.41e-01  -1.0 1.07e-04 6.98e-03f  1
  47 -1.6583813e-01 2.59e-11 1.13e-01  -5.7 4.66e-01  -1.5 1.98e-01 2.40e-02f  1
  48 -1.6594273e-01 2.57e-11 8.42e-02  -5.7 3.34e-01  -1.0 2.13e-03 4.75e-03f  1
  49 -1.6695971e-01 2.38e-11 6.20e-02  -5.7 3.73e-02  -0.6 2.68e-01 1.42e-01f  1
iter    objective    inf_pr   inf_du lg(mu)  ||d||  lg(rg) alpha_du alpha_pr  ls
  50 -1.7855316e-01 1.37e-11 4.06e-02  -5.7 2.23e-01  -1.1 1.39e-02 4.23e-01f  1
  51 -1.8426959e-01 5.42e-12 4.90e-02  -5.7 1.21e-01  -0.7 1.00e+00 6.04e-01f  1
  52 -1.8426451e-01 5.42e-12 4.88e-02  -5.7 3.75e-01  -1.1 1.39e-03 1.19e-04f 11
  53 -1.8426062e-01 5.42e-12 1.79e-01  -5.7 1.10e+00  -0.7 2.98e-01 3.79e-05f 12
  54 -1.8039007e-01 4.69e-12 1.01e-01  -5.7 3.36e-01  -1.2 3.53e-01 1.35e-01h  1
  55 -1.8814736e-01 3.08e-12 1.24e-01  -5.7 3.53e-01    -  8.37e-04 3.45e-01f  1
  56 -1.8978264e-01 1.75e-11 1.25e-01  -5.7 7.30e-01  -0.8 5.91e-03 1.50e-02f  1
  57 -1.9682155e-01 1.02e-11 7.45e-02  -5.7 1.08e-01  -0.3 5.34e-01 4.13e-01f  1
  58 -2.1081482e-01 9.80e-12 7.97e-02  -5.7 1.37e+00  -0.8 4.19e-02 4.27e-02f  1
  59 -2.0302543e-01 2.61e-12 8.01e-02  -5.7 4.81e-01  -1.3 3.30e-01 7.34e-01h  1
iter    objective    inf_pr   inf_du lg(mu)  ||d||  lg(rg) alpha_du alpha_pr  ls
  60 -2.0359035e-01 2.55e-12 1.31e-01  -5.7 2.91e-01  -0.9 5.05e-06 2.12e-02f  1
  61 -2.1129187e-01 2.09e-11 5.32e-02  -5.7 5.84e-02  -0.4 5.17e-01 8.82e-01f  1
  62 -2.1543506e-01 2.57e-11 7.52e-02  -5.7 2.41e-02  -0.0 2.61e-01 1.00e+00f  1
  63 -2.1935918e-01 2.32e-11 7.24e-02  -5.7 1.95e-01  -0.5 5.60e-02 9.44e-02f  1
  64 -2.2796038e-01 6.66e-16 3.21e-02  -5.7 3.61e-02  -0.1 6.20e-01 1.00e+00f  1
  65 -2.4979559e-01 4.44e-16 4.67e-02  -5.7 2.21e-01  -0.5 2.60e-01 3.12e-01f  1
  66 -2.3831355e-01 4.44e-16 1.39e-01  -5.7 5.36e-01  -1.0 3.53e-01 7.20e-02h  2
  67 -2.5277838e-01 4.44e-16 1.06e-01  -5.7 2.92e-01  -0.6 2.14e-01 1.53e-01f  1
  68 -2.8224701e-01 1.98e-11 5.78e-02  -5.7 7.62e-02  -0.2 1.00e+00 1.00e+00f  1
  69 -3.8063768e-01 1.44e-11 1.20e-01  -5.7 5.88e-01  -0.6 2.25e-01 2.74e-01f  1
iter    objective    inf_pr   inf_du lg(mu)  ||d||  lg(rg) alpha_du alpha_pr  ls
  70 -3.8228705e-01 1.30e-11 3.71e-01  -5.7 1.09e-01  -0.2 6.92e-01 9.85e-02f  1
  71 -3.8227509e-01 1.30e-11 1.89e-01  -5.7 1.99e-01    -  4.16e-01 1.50e-04f 12
  72 -4.2213333e-01 4.21e-11 1.34e-01  -5.7 3.02e-01  -0.7 2.07e-01 2.86e-01f  1
  73 -4.2207044e-01 4.21e-11 1.34e-01  -5.7 4.26e-01    -  1.82e-05 2.52e-04f 12
  74 -3.5153567e-01 3.33e-16 9.83e-02  -5.7 2.09e-01    -  7.38e-01 1.00e+00h  1
  75 -3.6317893e-01 2.22e-16 2.24e-01  -5.7 2.06e+00  -1.2 1.22e-01 2.42e-02f  1
  76 -3.6612899e-01 2.22e-16 2.26e-01  -5.7 1.25e-01  -0.7 3.24e-02 8.90e-02f  1
  77 -3.6612397e-01 2.22e-16 2.37e-01  -5.7 3.16e-01    -  1.97e-01 5.25e-05f 13
  78 -3.6364988e-01 2.22e-16 2.38e-01  -5.7 8.71e-01  -1.2 3.49e-02 1.01e-02h  3
  79 -3.7507989e-01 2.01e-11 1.99e-01  -5.7 2.26e-01  -0.8 2.10e-01 1.69e-01f  2
iter    objective    inf_pr   inf_du lg(mu)  ||d||  lg(rg) alpha_du alpha_pr  ls
  80 -3.9021243e-01 7.46e-12 7.50e-02  -5.7 6.83e-02  -0.4 6.73e-01 6.29e-01f  1
  81 -4.2624173e-01 2.63e-11 7.09e-02  -5.7 5.21e-01  -0.8 1.03e-01 1.44e-01f  1
  82 -4.2660285e-01 2.58e-11 6.94e-02  -5.7 9.16e-02    -  2.35e-02 1.73e-02f  1
  83 -4.3499020e-01 1.23e-11 9.45e-02  -5.7 7.94e-02    -  3.02e-01 5.22e-01f  1
  84 -4.3755293e-01 9.17e-12 3.15e-02  -5.7 5.68e-02    -  1.00e+00 3.71e-01f  1
  85 -4.3921212e-01 2.49e-11 4.71e-02  -5.7 4.13e-02    -  1.00e+00 5.90e-01f  1
  86 -4.3965654e-01 1.93e-11 6.67e-03  -5.7 2.04e-02    -  1.00e+00 9.25e-01f  1
  87 -4.3966271e-01 2.11e-11 9.72e-06  -5.7 2.34e-03    -  1.00e+00 1.00e+00f  1
  88 -4.3975854e-01 9.99e-16 2.30e-08  -8.6 3.30e-05    -  1.00e+00 1.00e+00f  1
  89 -4.3975860e-01 2.22e-16 8.24e-15  -9.0 2.08e-08    -  1.00e+00 1.00e+00h  1

Number of Iterations....: 89

                                   (scaled)                 (unscaled)
Objective...............:  -4.3975860268847367e-01   -4.3975860268847367e-01
Dual infeasibility......:   8.2425633186711517e-15    8.2425633186711517e-15
Constraint violation....:   2.2204460492503131e-16    2.2204460492503131e-16
Complementarity.........:   1.1077623275268379e-09    1.1077623275268379e-09
Overall NLP error.......:   1.1077623275268379e-09    1.1077623275268379e-09


Number of objective function evaluations             = 169
Number of objective gradient evaluations             = 90
Number of equality constraint evaluations            = 169
Number of inequality constraint evaluations          = 0
Number of equality constraint Jacobian evaluations   = 1
Number of inequality constraint Jacobian evaluations = 0
Number of Lagrangian Hessian evaluations             = 89
Total CPU secs in IPOPT (w/o function evaluations)   =      0.190
Total CPU secs in NLP function evaluations           =      1.830

EXIT: Optimal Solution Found.
